p cnf 39 31
-14 -5 0
-23 -14 -19 39 0
-32 -31 -10 -8 -39 -1 0
40 -5 -19 0
-32 41 -9 0
38 -1 -41 0
-30 -41 -8 -39 -4 0
-14 42 -9 0
-35 -42 -8 -37 -3 0
-23 43 -27 0
-19 37 -43 0
-43 -7 -38 -20 -17 0
-16 -38 -43 -22 -5 0
-40 -38 44 0
-23 -30 -44 -17 0
-23 -30 -44 -18 0
-29 -44 -26 -18 0
-8 -38 -14 45 0
-31 -22 -45 -23 0
-22 -45 -27 -26 0
-45 -20 -43 0
-8 -37 46 -1 0
-32 -46 -14 -12 0
-46 -33 -9 -17 0
-46 -14 -36 -10 0
-37 -5 0
-39 -38 -6 0
-38 -6 -37 0
38 -36 -4 -42 0
-24 -27 0
-25 0
